0 87 65 63 83 52 65 80 60 99 63 53 70 92 99 62 96 50 52 77 56 51 59 76 63 60 73 89 61 83 86 78 81 75 57 73 87 62 62 74 89 69 90 93 74 62 60 67 70 56 76 68 84 84 73 74 80 67 63 77 79 98 84 51 95 52 78 98 80 64 57 99 64 94 55 82 98 62 